3 32 1 10
14 20 3 18 6 8 14 4 20 7 17 15 19 5 16 15 20 4 5 16 3 1 5 12 12 6 8 2 1 17 3 3 
4.5 11.38 5.37 1.64 5.08 10.5 9.05 14.68 10.49 1.04 13.52 3.23 6.08 12.35 15.01 8.58 6.1 15.87 6.77 5.82 6.63 7.03 12.23 8.01 11.8 2.12 6.76 5.25 5.48 8.32 1.32 5.61 
8 8 8 8 8 8 8 8 8 8 8 8 8 8 8 8 8 8 8 8 8 8 8 8 8 8 8 8 8 8 8 8 
4.06 14.81 1.21 4.01 5.32 8.18 3.03 13.13 10.33 11.8 11.94 5.93 7.82 9.79 7.72 11.53 5.51 5.54 15.35 1.91 15.89 7.67 10.28 8.29 13.54 5.31 6.01 15.18 9.41 12.89 5.91 13.47 
1 1 1 1 1 1 1 1 1 1 1 1 1 1 1 1 1 1 1 1 1 1 1 1 1 1 1 1 1 1 1 1 
1 1 1 1 1 1 1 1 1 1 1 1 1 1 1 1 1 1 1 1 1 1 1 1 1 1 1 1 1 1 1 1 
1 1 1 1 1 1 1 1 1 1 1 1 1 1 1 1 1 1 1 1 1 1 1 1 1 1 1 1 1 1 1 1 
0.01 0.01 0.01 0.01 0.01 0.01 0.01 0.01 0.01 0.01 0.01 0.01 0.01 0.01 0.01 0.01 0.01 0.01 0.01 0.01 0.01 0.01 0.01 0.01 0.01 0.01 0.01 0.01 0.01 0.01 0.01 0.01 
0.02 0.02 0.02 0.02 0.02 0.02 0.02 0.02 0.02 0.02 0.02 0.02 0.02 0.02 0.02 0.02 0.02 0.02 0.02 0.02 0.02 0.02 0.02 0.02 0.02 0.02 0.02 0.02 0.02 0.02 0.02 0.02 
1 1 1 1 1 1 1 1 1 1 1 1 1 1 1 1 1 1 1 1 1 1 1 1 1 1 1 1 1 1 1 1 
